(set-logic HORN)
; KVARS

(declare-fun k_99 (Int Int Int Int Int Int Int Int Int Int Int Int Int Int) Bool)

(declare-fun k_97 (Int Int Int Int Int Int Int Int Int Int Int Int Int) Bool)

(declare-fun k_95 (Int Int Int Int Int Int Int Int Int Int Int Int Int) Bool)

(declare-fun k_87 (Int Int Int Int Int Int Int Int) Bool)

(declare-fun k_85 (Int Int Int Int Int Int Int Int Int) Bool)

(declare-fun k_83 (Int Int Int Int Int Int Int Int) Bool)

(declare-fun k_79 (Int Int Int Int Int Int Int Int Int) Bool)

(declare-fun k_77 (Int Int Int Int Int Int Int Int) Bool)

(declare-fun k_73 (Int Int Int Int Int Int Int) Bool)

(declare-fun k_70 (Int Int Int Int Int Int) Bool)

(declare-fun k_381 (Int Int Int Int Int Int Int) Bool)

(declare-fun k_379 (Int Int Int Int Int Int) Bool)

(declare-fun k_376 (Int Int Int Int Int Int) Bool)

(declare-fun k_374 (Int Int Int Int Int Int Int Int Int) Bool)

(declare-fun k_372 (Int Int Int Int Int Int Int Int) Bool)

(declare-fun k_369 (Int Int Int Int Int Int Int Int Int) Bool)

(declare-fun k_367 (Int Int Int Int Int Int Int Int) Bool)

(declare-fun k_363 (Int Int Int Int Int Int Int) Bool)

(declare-fun k_360 (Int Int Int Int Int Int) Bool)

(declare-fun k_356 (Int Int Int Int Int Int Int Int) Bool)

(declare-fun k_352 (Int Int Int Int Int Int Int) Bool)

(declare-fun k_350 (Int Int Int Int Int Int) Bool)

(declare-fun k_345 (Int Int Int Int Int Int Int Int) Bool)

(declare-fun k_343 (Int Int Int Int Int Int Int) Bool)

(declare-fun k_340 (Int Int Int Int Int Int Int) Bool)

(declare-fun k_338 (Int Int Int Int Int Int Int) Bool)

(declare-fun k_335 (Int Int Int Int Int Int Int Int Int) Bool)

(declare-fun k_333 (Int Int Int Int Int Int Int Int) Bool)

(declare-fun k_330 (Int Int Int Int Int Int Int Int Int) Bool)

(declare-fun k_328 (Int Int Int Int Int Int Int Int) Bool)

(declare-fun k_324 (Int Int Int Int Int Int Int) Bool)

(declare-fun k_321 (Int Int Int Int Int Int) Bool)

(declare-fun k_318 (Int Int Int Int Int Int Int Int) Bool)

(declare-fun k_315 (Int Int Int Int Int Int Int Int Int Int Int Int Int Int Int) Bool)

(declare-fun k_310 (Int Int Int Int Int Int Int Int Int Int Int Int Int Int Int Int) Bool)

(declare-fun k_308 (Int Int Int Int Int Int Int Int Int Int Int Int Int Int Int) Bool)

(declare-fun k_306 (Int Int Int Int Int Int Int Int Int Int Int Int Int Int Int) Bool)

(declare-fun k_298 (Int Int Int Int Int Int Int Int Int Int) Bool)

(declare-fun k_296 (Int Int Int Int Int Int Int Int Int Int Int) Bool)

(declare-fun k_294 (Int Int Int Int Int Int Int Int Int Int) Bool)

(declare-fun k_290 (Int Int Int Int Int Int Int Int Int Int Int) Bool)

(declare-fun k_288 (Int Int Int Int Int Int Int Int Int Int) Bool)

(declare-fun k_284 (Int Int Int Int Int Int Int Int Int) Bool)

(declare-fun k_281 (Int Int Int Int Int Int Int Int) Bool)

(declare-fun k_278 (Int Int Int Int Int Int Int Int Int) Bool)

(declare-fun k_276 (Int Int Int Int Int Int Int Int) Bool)

(declare-fun k_271 (Int Int Int Int Int Int Int Int Int Int Int) Bool)

(declare-fun k_269 (Int Int Int Int Int Int Int Int Int Int) Bool)

(declare-fun k_266 (Int Int Int Int Int Int Int Int Int Int Int) Bool)

(declare-fun k_264 (Int Int Int Int Int Int Int Int Int Int) Bool)

(declare-fun k_260 (Int Int Int Int Int Int Int Int Int) Bool)

(declare-fun k_257 (Int Int Int Int Int Int Int Int) Bool)

(declare-fun k_254 (Int Int Int Int Int Int Int Int Int) Bool)

(declare-fun k_252 (Int Int Int Int Int Int Int Int) Bool)

(declare-fun k_248 (Int Int Int Int Int Int Int Int Int Int Int) Bool)

(declare-fun k_246 (Int Int Int Int Int Int Int Int Int Int) Bool)

(declare-fun k_243 (Int Int Int Int Int Int Int Int Int Int Int) Bool)

(declare-fun k_241 (Int Int Int Int Int Int Int Int Int Int) Bool)

(declare-fun k_238 (Int Int Int Int Int Int Int Int Int) Bool)

(declare-fun k_236 (Int Int Int Int Int Int Int Int) Bool)

(declare-fun k_234 (Int Int Int Int Int Int Int Int Int) Bool)

(declare-fun k_232 (Int Int Int Int Int Int Int Int) Bool)

(declare-fun k_229 (Int Int Int Int Int Int Int Int Int Int Int) Bool)

(declare-fun k_227 (Int Int Int Int Int Int Int Int Int Int) Bool)

(declare-fun k_224 (Int Int Int Int Int Int Int Int Int Int Int) Bool)

(declare-fun k_222 (Int Int Int Int Int Int Int Int Int Int) Bool)

(declare-fun k_218 (Int Int Int Int Int Int Int Int Int) Bool)

(declare-fun k_215 (Int Int Int Int Int Int Int Int) Bool)

(declare-fun k_212 (Int Int Int Int Int Int Int Int Int) Bool)

(declare-fun k_210 (Int Int Int Int Int Int Int Int) Bool)

(declare-fun k_203 (Int Int Int Int Int Int Int Int) Bool)

(declare-fun k_199 (Int Int Int Int Int Int Int) Bool)

(declare-fun k_197 (Int Int Int Int Int Int) Bool)

(declare-fun k_190 (Int Int Int Int Int Int Int Int Int Int Int Int Int Int) Bool)

(declare-fun k_188 (Int Int Int Int Int Int Int Int Int Int Int Int Int) Bool)

(declare-fun k_186 (Int Int Int Int Int Int Int Int Int Int Int Int Int) Bool)

(declare-fun k_178 (Int Int Int Int Int Int Int Int) Bool)

(declare-fun k_176 (Int Int Int Int Int Int Int Int Int) Bool)

(declare-fun k_174 (Int Int Int Int Int Int Int Int) Bool)

(declare-fun k_170 (Int Int Int Int Int Int Int Int Int) Bool)

(declare-fun k_168 (Int Int Int Int Int Int Int Int) Bool)

(declare-fun k_164 (Int Int Int Int Int Int Int) Bool)

(declare-fun k_161 (Int Int Int Int Int Int) Bool)

(declare-fun k_158 (Int Int Int Int Int Int Int Int) Bool)

(declare-fun k_154 (Int Int Int Int Int Int Int) Bool)

(declare-fun k_152 (Int Int Int Int Int Int) Bool)

(declare-fun k_145 (Int Int Int Int Int Int Int Int Int Int Int Int Int Int Int) Bool)

(declare-fun k_143 (Int Int Int Int Int Int Int Int Int Int Int Int Int Int) Bool)

(declare-fun k_141 (Int Int Int Int Int Int Int Int Int Int Int Int Int Int) Bool)

(declare-fun k_133 (Int Int Int Int Int Int Int Int Int) Bool)

(declare-fun k_130 (Int Int Int Int Int Int Int Int Int) Bool)

(declare-fun k_128 (Int Int Int Int Int Int Int Int) Bool)

(declare-fun k_124 (Int Int Int Int Int Int Int Int Int) Bool)

(declare-fun k_122 (Int Int Int Int Int Int Int Int) Bool)

(declare-fun k_118 (Int Int Int Int Int Int Int) Bool)

(declare-fun k_115 (Int Int Int Int Int Int) Bool)

(declare-fun k_112 (Int Int Int Int Int Int Int Int) Bool)

(declare-fun k_108 (Int Int Int Int Int Int Int) Bool)

(declare-fun k_106 (Int Int Int Int Int Int) Bool)

; CONSTRAINTS

; cid = 158
(assert (forall ((EQ_6U Int) 
(False_68 Int) (GT_6W Int) (LT_6S Int) (Prop (Array Int Bool)) (True_6u Int) 
(VV_F158 Int) (cmp (Array Int Int)) (i_atI Int) (lq_anf__duu Int) 
(lq_anf__duv Int) (lq_anf__duw Int) (lq_anf__dux Int) (lq_anf__duy Int) 
(n_atJ Int)) 
 (=> (and (k_70 EQ_6U False_68 GT_6W LT_6S True_6u i_atI) (and (k_73 EQ_6U False_68 GT_6W LT_6S True_6u n_atJ i_atI) (and (= (select cmp EQ_6U) EQ_6U) (and (not (select Prop False_68)) (and (= (select cmp GT_6W) GT_6W) (and (= (select cmp LT_6S) LT_6S) (and (select Prop True_6u) (and (= (select Prop lq_anf__duu) (>= i_atI n_atJ)) (and (= (select Prop lq_anf__duv) (>= i_atI n_atJ)) (and (= lq_anf__duv lq_anf__duu) (and (not (select Prop lq_anf__duv)) (and (not (select Prop lq_anf__duv)) (and (= lq_anf__duw 2) (and (= lq_anf__dux (+ i_atI lq_anf__duw)) (and (= lq_anf__duy 0) (and (k_70 EQ_6U False_68 GT_6W LT_6S True_6u VV_F158) (and (= VV_F158 i_atI) true))))))))))))))))) (k_97 EQ_6U False_68 GT_6W LT_6S True_6u VV_F158 i_atI lq_anf__duu lq_anf__duv lq_anf__duw lq_anf__dux lq_anf__duy n_atJ)))
)


; cid = 155
(assert (forall ((EQ_6U Int) (False_68 Int) (GT_6W Int) 
(LT_6S Int) (Prop (Array Int Bool)) (True_6u Int) (VV_F155 Int) 
(cmp (Array Int Int)) (i_atI Int) (lq_anf__duu Int) (lq_anf__duv Int) 
(lq_anf__duw Int) (lq_anf__dux Int) (lq_anf__duy Int) 
(n_atJ Int)) 
 (=> (and (k_70 EQ_6U False_68 GT_6W LT_6S True_6u i_atI) (and (k_73 EQ_6U False_68 GT_6W LT_6S True_6u n_atJ i_atI) (and (= (select cmp EQ_6U) EQ_6U) (and (not (select Prop False_68)) (and (= (select cmp GT_6W) GT_6W) (and (= (select cmp LT_6S) LT_6S) (and (select Prop True_6u) (and (= (select Prop lq_anf__duu) (>= i_atI n_atJ)) (and (= (select Prop lq_anf__duv) (>= i_atI n_atJ)) (and (= lq_anf__duv lq_anf__duu) (and (not (select Prop lq_anf__duv)) (and (not (select Prop lq_anf__duv)) (and (= lq_anf__duw 2) (and (= lq_anf__dux (+ i_atI lq_anf__duw)) (and (= lq_anf__duy 0) (and (not (= VV_F155 i_atI)) (and (k_97 EQ_6U False_68 GT_6W LT_6S True_6u VV_F155 i_atI lq_anf__duu lq_anf__duv lq_anf__duw lq_anf__dux lq_anf__duy n_atJ) true))))))))))))))))) (k_77 EQ_6U False_68 GT_6W LT_6S True_6u VV_F155 i_atI n_atJ)))
)


; cid = 152
(assert (forall ((EQ_6U Int) (False_68 Int) (GT_6W Int) 
(LT_6S Int) (Prop (Array Int Bool)) (True_6u Int) (VV_F152 Int) 
(cmp (Array Int Int)) (i_atI Int) (lq_anf__duu Int) (lq_anf__duv Int) 
(lq_anf__duw Int) (lq_anf__dux Int) (lq_anf__duy Int) 
(n_atJ Int)) 
 (=> (and (k_70 EQ_6U False_68 GT_6W LT_6S True_6u i_atI) (and (k_73 EQ_6U False_68 GT_6W LT_6S True_6u n_atJ i_atI) (and (= (select cmp EQ_6U) EQ_6U) (and (not (select Prop False_68)) (and (= (select cmp GT_6W) GT_6W) (and (= (select cmp LT_6S) LT_6S) (and (select Prop True_6u) (and (= (select Prop lq_anf__duu) (>= i_atI n_atJ)) (and (= (select Prop lq_anf__duv) (>= i_atI n_atJ)) (and (= lq_anf__duv lq_anf__duu) (and (not (select Prop lq_anf__duv)) (and (not (select Prop lq_anf__duv)) (and (= lq_anf__duw 2) (and (= lq_anf__dux (+ i_atI lq_anf__duw)) (and (= lq_anf__duy 0) (and (< VV_F152 lq_anf__dux) (and (= (mod VV_F152 2) 0) (and (<= 0 VV_F152) true)))))))))))))))))) (k_97 EQ_6U False_68 GT_6W LT_6S True_6u VV_F152 i_atI lq_anf__duu lq_anf__duv lq_anf__duw lq_anf__dux lq_anf__duy n_atJ)))
)


; cid = 151
(assert (forall ((EQ_6U Int) (False_68 Int) (GT_6W Int) 
(LT_6S Int) (Prop (Array Int Bool)) (True_6u Int) (VV_F151 Int) 
(cmp (Array Int Int)) (i_atI Int) (lq_anf__duu Int) (lq_anf__duv Int) 
(lq_anf__duw Int) (lq_anf__dux Int) (lq_anf__duy Int) (lq_tmp_x81 Int) 
(n_atJ Int)) 
 (=> (and (k_70 EQ_6U False_68 GT_6W LT_6S True_6u i_atI) (and (k_83 EQ_6U False_68 GT_6W LT_6S True_6u lq_tmp_x81 i_atI n_atJ) (and (k_73 EQ_6U False_68 GT_6W LT_6S True_6u n_atJ i_atI) (and (= (select cmp EQ_6U) EQ_6U) (and (not (select Prop False_68)) (and (= (select cmp GT_6W) GT_6W) (and (= (select cmp LT_6S) LT_6S) (and (select Prop True_6u) (and (= (select Prop lq_anf__duu) (>= i_atI n_atJ)) (and (= (select Prop lq_anf__duv) (>= i_atI n_atJ)) (and (= lq_anf__duv lq_anf__duu) (and (not (select Prop lq_anf__duv)) (and (not (select Prop lq_anf__duv)) (and (= lq_anf__duw 2) (and (= lq_anf__dux (+ i_atI lq_anf__duw)) (and (= lq_anf__duy 0) (and (= VV_F151 0) true))))))))))))))))) (k_85 EQ_6U False_68 GT_6W LT_6S True_6u VV_F151 i_atI lq_tmp_x81 n_atJ)))
)


; cid = 149
(assert (forall ((EQ_6U Int) (False_68 Int) (GT_6W Int) 
(LT_6S Int) (Prop (Array Int Bool)) (True_6u Int) (VV_F149 Int) 
(cmp (Array Int Int)) (i_atI Int) (lq_anf__duu Int) (lq_anf__duv Int) 
(lq_tmp_x81 Int) 
(n_atJ Int)) 
 (=> (and (k_70 EQ_6U False_68 GT_6W LT_6S True_6u i_atI) (and (k_83 EQ_6U False_68 GT_6W LT_6S True_6u lq_tmp_x81 i_atI n_atJ) (and (k_73 EQ_6U False_68 GT_6W LT_6S True_6u n_atJ i_atI) (and (= (select cmp EQ_6U) EQ_6U) (and (not (select Prop False_68)) (and (= (select cmp GT_6W) GT_6W) (and (= (select cmp LT_6S) LT_6S) (and (select Prop True_6u) (and (= (select Prop lq_anf__duu) (>= i_atI n_atJ)) (and (= (select Prop lq_anf__duv) (>= i_atI n_atJ)) (and (= lq_anf__duv lq_anf__duu) (and (select Prop lq_anf__duv) (and (select Prop lq_anf__duv) (and (k_79 EQ_6U False_68 GT_6W LT_6S True_6u VV_F149 i_atI lq_tmp_x81 n_atJ) true)))))))))))))) (k_85 EQ_6U False_68 GT_6W LT_6S True_6u VV_F149 i_atI lq_tmp_x81 n_atJ)))
)


; cid = 148
(assert (forall ((EQ_6U Int) (False_68 Int) (GT_6W Int) 
(LT_6S Int) (Prop (Array Int Bool)) (True_6u Int) (VV_F148 Int) 
(cmp (Array Int Int)) (i_atI Int) (lq_anf__duu Int) (lq_anf__duv Int) 
(n_atJ Int)) 
 (=> (and (k_70 EQ_6U False_68 GT_6W LT_6S True_6u i_atI) (and (k_73 EQ_6U False_68 GT_6W LT_6S True_6u n_atJ i_atI) (and (= (select cmp EQ_6U) EQ_6U) (and (not (select Prop False_68)) (and (= (select cmp GT_6W) GT_6W) (and (= (select cmp LT_6S) LT_6S) (and (select Prop True_6u) (and (= (select Prop lq_anf__duu) (>= i_atI n_atJ)) (and (= (select Prop lq_anf__duv) (>= i_atI n_atJ)) (and (= lq_anf__duv lq_anf__duu) (and (select Prop lq_anf__duv) (and (select Prop lq_anf__duv) (and (k_83 EQ_6U False_68 GT_6W LT_6S True_6u VV_F148 i_atI n_atJ) true))))))))))))) (k_77 EQ_6U False_68 GT_6W LT_6S True_6u VV_F148 i_atI n_atJ)))
)


; cid = 147
(assert (forall ((EQ_6U Int) (False_68 Int) (GT_6W Int) 
(LT_6S Int) (Prop (Array Int Bool)) (True_6u Int) (VV_F147 Int) 
(cmp (Array Int Int)) (i Int) (k Int) 
(n Int)) 
 (=> (and (not (= VV_F147 0)) (and (= (select cmp EQ_6U) EQ_6U) (and (not (select Prop False_68)) (and (= (select cmp GT_6W) GT_6W) (and (= (select cmp LT_6S) LT_6S) (and (select Prop True_6u) (and (= (mod i 2) 0) (and (>= i 0) (and (< k n) (and (= (mod k 2) 0) (and (<= 0 k) (and (k_85 EQ_6U False_68 GT_6W LT_6S True_6u VV_F147 i k n) true)))))))))))) false))
)


; cid = 146
(assert (forall ((EQ_6U Int) (False_68 Int) (GT_6W Int) 
(LT_6S Int) (Prop (Array Int Bool)) (True_6u Int) (VV_F146 Int) 
(cmp (Array Int Int)) (i Int) 
(n Int)) 
 (=> (and (= (select cmp EQ_6U) EQ_6U) (and (not (select Prop False_68)) (and (= (select cmp GT_6W) GT_6W) (and (= (select cmp LT_6S) LT_6S) (and (select Prop True_6u) (and (= (mod i 2) 0) (and (>= i 0) (and (< VV_F146 n) (and (= (mod VV_F146 2) 0) (and (<= 0 VV_F146) true)))))))))) (k_83 EQ_6U False_68 GT_6W LT_6S True_6u VV_F146 i n)))
)


; cid = 145
(assert (forall ((EQ_6U Int) (False_68 Int) (GT_6W Int) 
(LT_6S Int) (Prop (Array Int Bool)) (True_6u Int) (VV_F145 Int) 
(cmp (Array Int Int)) (i Int) (lq_tmp_x75 Int) 
(n Int)) 
 (=> (and (k_77 EQ_6U False_68 GT_6W LT_6S True_6u lq_tmp_x75 i n) (and (= (select cmp EQ_6U) EQ_6U) (and (not (select Prop False_68)) (and (= (select cmp GT_6W) GT_6W) (and (= (select cmp LT_6S) LT_6S) (and (select Prop True_6u) (and (= (mod i 2) 0) (and (>= i 0) (and (= VV_F145 0) true))))))))) (k_79 EQ_6U False_68 GT_6W LT_6S True_6u VV_F145 i lq_tmp_x75 n)))
)


; cid = 143
(assert (forall ((EQ_6U Int) (False_68 Int) (GT_6W Int) 
(LT_6S Int) (Prop (Array Int Bool)) (True_6u Int) (VV_F143 Int) 
(cmp (Array Int Int)) 
(i Int)) 
 (=> (and (= (select cmp EQ_6U) EQ_6U) (and (not (select Prop False_68)) (and (= (select cmp GT_6W) GT_6W) (and (= (select cmp LT_6S) LT_6S) (and (select Prop True_6u) (and (= (mod i 2) 0) (and (>= i 0) true))))))) (k_73 EQ_6U False_68 GT_6W LT_6S True_6u VV_F143 i)))
)


; cid = 142
(assert (forall ((EQ_6U Int) (False_68 Int) (GT_6W Int) 
(LT_6S Int) (Prop (Array Int Bool)) (True_6u Int) (VV_F142 Int) 
(cmp (Array Int Int))) 
 (=> (and (= (select cmp EQ_6U) EQ_6U) (and (not (select Prop False_68)) (and (= (select cmp GT_6W) GT_6W) (and (= (select cmp LT_6S) LT_6S) (and (select Prop True_6u) (and (= (mod VV_F142 2) 0) (and (>= VV_F142 0) true))))))) (k_70 EQ_6U False_68 GT_6W LT_6S True_6u VV_F142)))
)
